benchmarks_vrp/CMT5/min_c/CMT5_14.vrp
NAME: CMT5_14
TYPE: CVRP
COMMENT: 1291.29 - Cluster Nr.14
DIMENSION: 11
CAPACITY: 200
EDGE_WEIGHT_TYPE: EUC_2D
NODE_COORD_TYPE: TWOD_COORDS
NODE_COORD_SECTION: 
11 35 35
8 26 59
4 27 68
6 17 64
2 30 60
7 17 63
9 27 69
10 15 77
1 30 60
3 20 65
5 24 58
DEPOT_SECTION: 
11
-1
DEMAND_SECTION: 
3 12
10 9
11 0
6 14
1 16
2 16
7 19
5 19
4 7
9 10
8 29
EOF
