benchmarks_vrp/CMT5/min_c/CMT5_14.tour
NAME: CMT5_14 solution
TYPE: TOUR
TOUR_SECTION:
11 1 2 4 9 10 6 7 3 8 5 -1
-1
EOF